41

C -6.40824 -1.07561 0.52555
C -4.91997 -1.16845 0.82642
O -4.28490 -0.00113 0.36210
P -2.66496 0.03163 0.92096
S -2.63694 0.56419 2.56839
O -1.73695 1.11724 -0.01621
C -2.59132 2.07269 -0.59553
C -1.74733 3.11761 -1.31197
S -1.77024 -1.89901 0.79017
C -0.06070 -1.35277 1.10809
S 0.67894 -0.72378 -0.43476
P 2.50028 -0.09226 0.47108
S 2.19500 1.22102 1.55851
O 3.64492 0.38004 -0.71145
C 3.06349 1.33471 -1.57035
C 4.09106 1.74317 -2.61535
O 3.14419 -1.39029 1.37903
C 3.61089 -2.40146 0.50900
C 5.13078 -2.35461 0.42082
H -6.92127 -1.99283 0.88404
H -6.56964 -0.97839 -0.56994
H -6.84472 -0.19187 1.04101
H -4.79910 -1.29403 1.92686
H -4.52093 -2.06094 0.29627
H -3.25970 1.59242 -1.34622
H -3.19850 2.59512 0.18161
H -2.40899 3.88151 -1.77970
H -1.07744 3.62260 -0.58150
H -1.13141 2.63539 -2.10391
H 0.52027 -2.23632 1.44255
H -0.03524 -0.59148 1.91236
H 2.18439 0.91250 -2.10748
H 2.76190 2.24954 -1.01033
H 4.99126 2.16746 -2.12044
H 3.65061 2.50768 -3.29030
H 4.39299 0.85772 -3.21952
H 3.32560 -3.38180 0.94392
H 3.17143 -2.37827 -0.51722
H 5.46265 -1.38542 -0.00538
H 5.49299 -3.17477 -0.23053
H 5.57484 -2.47872 1.43289
