32

C -4.49227 -1.25120 1.09995
C -4.14714 -0.94686 -0.35385
N -2.79813 -1.41152 -0.67137
C -1.61713 -0.72277 -0.24129
N -0.39430 -1.21862 -0.56257
C 0.73432 -0.57498 -0.16704
N 0.63480 0.57085 0.55665
C -0.58377 1.07249 0.87577
N -1.70779 0.42700 0.47744
S -0.70801 2.58591 1.82042
C -0.70320 3.64302 0.33989
N 2.01741 -1.11186 -0.51449
C 3.27513 -0.44547 -0.15967
C 3.51422 0.75306 -1.08318
C 4.44351 -1.43217 -0.25219
H -3.81161 -0.70519 1.78586
H -5.53540 -0.93343 1.30903
H -4.40489 -2.34178 1.29136
H -4.23126 0.14418 -0.54843
H -4.87774 -1.46852 -1.00924
H -2.69239 -2.25145 -1.28420
H -1.57219 3.39803 -0.30620
H 0.23939 3.49813 -0.22872
H -0.77521 4.70491 0.65227
H 2.04356 -2.02478 -1.02414
H 3.21896 -0.08731 0.89217
H 2.69254 1.49202 -0.97842
H 3.56223 0.42229 -2.14287
H 4.46760 1.25798 -0.81818
H 5.38890 -0.93853 0.05905
H 4.26199 -2.29548 0.42283
H 4.55789 -1.80795 -1.29178
