32

C -4.92034 -1.25264 0.06308
C -4.12841 -0.07084 0.61521
C -2.75223 0.03468 -0.05227
C -1.95610 1.21915 0.51563
C -0.62494 1.44507 -0.21868
C 0.41123 0.35222 0.08383
C 1.76373 0.68585 -0.55731
C 2.79673 -0.40932 -0.26651
C 4.14859 -0.07424 -0.90690
C 5.17936 -1.16214 -0.61989
H -4.37814 -2.20337 0.25343
H -5.07982 -1.13343 -1.02982
H -5.91056 -1.30260 0.56302
H -4.70542 0.86258 0.43600
H -4.00361 -0.20257 1.71225
H -2.88593 0.16948 -1.14826
H -2.19517 -0.91001 0.12451
H -2.56532 2.14375 0.41064
H -1.76639 1.06299 1.60036
H -0.21668 2.42656 0.10846
H -0.80444 1.50416 -1.31471
H 0.05580 -0.62127 -0.31604
H 0.54054 0.25902 1.18464
H 2.13311 1.65497 -0.15488
H 1.63388 0.78643 -1.65763
H 2.92595 -0.51044 0.83382
H 2.42904 -1.37869 -0.66998
H 4.02780 0.02495 -2.00778
H 4.52463 0.89204 -0.50535
H 4.83903 -2.13515 -1.03403
H 5.33791 -1.26439 0.47487
H 6.14616 -0.89279 -1.09498
