20

C -3.21565 0.44991 0.38661
C -2.16803 -0.45785 -0.25124
C -0.77343 0.17506 -0.18630
C 0.27455 -0.73914 -0.82713
C 1.63061 -0.11262 -0.75158
O 2.03715 0.61774 -1.69640
O 2.41587 -0.30793 0.38817
C 3.70314 0.27757 0.54053
H -3.25905 1.42338 -0.14684
H -2.97262 0.62774 1.45591
H -4.21341 -0.03346 0.32497
H -2.16294 -1.43235 0.28423
H -2.44817 -0.64013 -1.31175
H -0.78658 1.15087 -0.72099
H -0.50128 0.35802 0.87711
H 0.01270 -0.92803 -1.89138
H 0.29790 -1.71584 -0.29686
H 3.62346 1.38484 0.50691
H 4.12655 -0.02278 1.52083
H 4.37923 -0.07499 -0.26701
