28

C 3.79287 -1.45207 -0.83566
C 4.05205 -0.08120 -0.87577
C 3.04682 0.83142 -0.54687
C 1.76700 0.37619 -0.18211
C 1.50597 -1.00447 -0.14172
C 2.52758 -1.91499 -0.46651
C 0.17158 -1.47882 0.27894
O 0.04015 -2.67037 0.66911
C -0.98074 -0.53018 0.31329
C -2.32342 -0.98340 0.42547
C -3.35444 -0.05527 0.59418
C -3.09659 1.30854 0.55429
C -1.79992 1.78551 0.34448
C -0.71636 0.86817 0.27238
C 0.70216 1.32754 0.19685
O 1.01862 2.50490 0.51774
N -1.62455 3.19618 0.15325
N -2.67678 -2.36922 0.31604
H 4.57417 -2.15724 -1.08834
H 5.03400 0.27491 -1.15950
H 3.26812 1.89090 -0.58151
H 2.34677 -2.98233 -0.43892
H -4.37806 -0.39230 0.70244
H -3.92552 2.00127 0.63243
H -2.38291 3.86217 0.42261
H -0.85774 3.57652 -0.44222
H -2.10796 -3.03601 -0.24881
H -3.62290 -2.69634 0.61445
