31

C -4.37308 -1.17066 1.71894
O -4.70341 0.16838 1.45602
P -3.37016 0.95679 0.72654
S -3.08262 2.41174 1.61290
O -3.77488 1.38575 -0.87413
C -4.21035 0.23049 -1.54540
S -1.56789 -0.18856 0.73532
C -0.66623 0.91746 -0.40199
N 0.70201 0.42684 -0.57961
C 1.67709 0.68488 0.34614
O 1.41748 1.37627 1.37101
C 2.96695 0.17246 0.14823
C 4.02026 0.40290 1.05303
C 5.28730 -0.13493 0.80356
C 5.51199 -0.90283 -0.34309
C 4.47047 -1.13701 -1.24570
C 3.20068 -0.60132 -1.00173
N 2.18581 -0.82723 -1.86906
N 0.97190 -0.32375 -1.65113
H -4.08174 -1.70944 0.79051
H -3.57749 -1.23766 2.49248
H -5.27074 -1.67955 2.12554
H -5.15936 -0.15200 -1.11071
H -4.41553 0.49596 -2.60252
H -3.42915 -0.56132 -1.55043
H -1.18689 0.93850 -1.38334
H -0.65255 1.95530 -0.00589
H 3.86825 0.99463 1.94734
H 6.09626 0.04364 1.50015
H 6.49390 -1.31717 -0.53187
H 4.65170 -1.73381 -2.13112
