22

C -1.46758 -0.21341 -1.20148
C -2.86450 -0.23027 -1.17857
C -3.55346 -0.03017 0.02261
C -2.83535 0.18409 1.21125
C -1.43578 0.20011 1.18598
C -0.74289 0.01294 -0.02113
C 0.73718 0.01233 -0.04580
C 1.40474 -1.12841 -0.51355
C 2.79944 -1.18024 -0.53861
C 3.55174 -0.08049 -0.09689
C 2.89559 1.07643 0.36283
C 1.48791 1.12760 0.38603
Cl 0.67636 2.61214 0.89759
Cl 3.83978 2.46702 0.90263
Cl 5.31456 -0.15128 -0.12739
Cl 3.57827 -2.64413 -1.12703
Cl -3.66164 0.42946 2.74388
Cl -5.31158 -0.05793 0.01115
H -0.95055 -0.36834 -2.14063
H -3.41157 -0.39965 -2.09733
H -0.88728 0.35055 2.10809
H 0.83660 -1.98834 -0.84863
