40

C -1.23998 -2.13838 1.48701
C -1.54254 -0.74979 0.93911
O -1.82248 -0.85188 -0.43943
P -2.23799 0.69837 -1.02986
S -2.94342 0.50452 -2.59255
O -3.39550 1.40680 0.00881
C -3.42180 2.79977 -0.18272
C -4.60664 3.37627 0.58547
S -0.48981 1.89341 -1.20470
C 0.53637 0.65011 -2.08190
H -0.11389 -0.06700 -2.63061
C 1.41752 1.35594 -3.12050
Cl 2.37534 0.16850 -4.04699
N 1.36315 -0.07720 -1.11507
C 1.44099 -1.49553 -0.94963
O 0.86129 -2.33116 -1.68721
C 2.30935 -1.81081 0.18080
C 2.64081 -3.03474 0.75261
C 3.49337 -3.02421 1.87156
C 4.00140 -1.80515 2.38004
C 3.65265 -0.58467 1.78075
C 2.79433 -0.61940 0.68783
C 2.22758 0.46189 -0.10439
O 2.44616 1.69045 0.07014
H -2.12480 -2.80189 1.35782
H -0.38384 -2.58639 0.94336
H -0.99111 -2.07237 2.56805
H -0.65888 -0.08903 1.12075
H -2.41825 -0.35869 1.49958
H -3.54146 3.06666 -1.25909
H -2.49210 3.26097 0.22062
H -5.55768 2.88749 0.25508
H -4.47575 3.19033 1.68176
H -4.67084 4.46735 0.40951
H 2.10623 2.07825 -2.63016
H 0.77381 1.91384 -3.83654
H 2.24316 -3.96210 0.36195
H 3.75774 -3.95549 2.35077
H 4.65678 -1.80919 3.24521
H 4.03074 0.35413 2.16343
