35

C 0.18574 -2.32569 -1.92069
C -0.55722 -1.44496 -0.94627
C -1.89754 -1.71158 -0.59181
N -2.52822 -0.90475 0.30133
C -1.89688 0.14759 0.88435
N -0.59896 0.40041 0.57346
C 0.08840 -0.36500 -0.31590
O 1.43309 -0.08984 -0.60946
C 2.19784 0.94939 -0.05717
O 1.69503 1.74419 0.78436
N 3.56979 1.10630 -0.45789
C 4.37806 2.18777 0.11217
C 4.14119 0.17732 -1.43562
N -2.59410 0.98305 1.82829
C -3.99386 0.69755 2.15740
C -1.89775 2.11256 2.45182
C -2.66447 -2.85527 -1.18855
H 1.10718 -1.83866 -2.30192
H 0.46734 -3.27545 -1.42002
H -0.44922 -2.55161 -2.80238
H 3.91542 3.16792 -0.12965
H 4.43338 2.07193 1.21521
H 5.41272 2.18300 -0.29024
H 4.08711 -0.85984 -1.04224
H 3.57010 0.23683 -2.38626
H 5.20423 0.41214 -1.65289
H -4.07600 -0.32161 2.59077
H -4.39934 1.42166 2.89473
H -4.61375 0.75502 1.23777
H -1.01755 1.74260 3.01904
H -2.55607 2.66501 3.15448
H -1.55556 2.82038 1.66746
H -2.09597 -3.80164 -1.07087
H -2.84967 -2.66241 -2.26585
H -3.64449 -2.97431 -0.67926
