29

C -2.98452 0.57348 -0.39095
C -2.59859 -0.37164 0.72292
C -1.39286 -0.98099 0.75960
C -0.29311 -0.75632 -0.24774
C 0.59527 0.41974 0.17141
C 1.67850 0.66488 -0.86017
C 2.90190 0.09340 -0.78983
C 3.36125 -0.80186 0.33207
O 3.53837 -0.06331 1.51019
C 1.35653 1.52651 -2.05347
C -3.58553 -0.66513 1.82323
H -3.99839 0.99589 -0.23250
H -2.27093 1.42072 -0.44373
H -2.99098 0.03319 -1.36059
H -1.17294 -1.66184 1.57850
H 0.32384 -1.67867 -0.29765
H -0.70900 -0.59068 -1.26415
H -0.02081 1.33800 0.27379
H 1.02664 0.22838 1.17583
H 3.61246 0.27499 -1.59257
H 4.31863 -1.29284 0.04612
H 2.61967 -1.60778 0.50921
H 4.36130 0.47823 1.38521
H 2.03708 2.40370 -2.07794
H 1.48312 0.93949 -2.98784
H 0.30932 1.89434 -2.01475
H -4.53876 -0.11533 1.67900
H -3.15561 -0.36462 2.80223
H -3.81185 -1.75231 1.84461
