22

C 1.14685 -1.49750 -0.66467
C 1.67733 -0.58682 -1.46887
C 1.59462 0.79748 -0.91682
H 1.05667 1.46469 -1.62213
C 0.84856 0.62649 0.42668
H 1.45731 1.01097 1.27558
C 0.59431 -0.89272 0.58479
H 1.11558 -1.30572 1.47628
C -0.95561 -0.96291 0.72577
C -1.57321 -0.56111 -0.59785
C -1.35754 0.74812 -0.74099
C -0.60001 1.20505 0.48983
C -1.25447 0.30017 1.54261
Cl -0.47993 0.34563 3.17064
Cl -3.01639 0.61531 1.78591
Cl -0.68217 2.95720 0.83074
Cl -1.97509 1.75732 -2.04296
Cl -2.50774 -1.57913 -1.68585
Cl -1.56921 -2.48927 1.42367
Cl 3.24323 1.43360 -0.66794
H 1.11060 -2.55636 -0.89823
H 2.12632 -0.83047 -2.42619
