27

C 4.32958 -0.10663 -0.51479
C 2.85810 -0.51126 -0.51840
C 2.04465 0.35502 0.45473
C 0.58360 -0.10621 0.58059
C -0.25571 0.24663 -0.65966
C -1.71507 -0.22065 -0.53650
C -2.52509 0.62006 0.46426
C -4.01699 0.27533 0.42357
O -4.23767 -1.03086 0.88539
H 4.89156 -0.74112 -1.23219
H 4.43795 0.95610 -0.81975
H 4.76599 -0.24446 0.49744
H 2.78062 -1.58117 -0.22643
H 2.46774 -0.39756 -1.55134
H 2.07842 1.41969 0.13462
H 2.51110 0.29246 1.46261
H 0.15036 0.39942 1.46894
H 0.54885 -1.20218 0.76595
H -0.22532 1.34337 -0.84098
H 0.17964 -0.25349 -1.54994
H -1.73962 -1.29264 -0.24261
H -2.18682 -0.13543 -1.54011
H -2.15086 0.45479 1.49669
H -2.40869 1.69860 0.22054
H -4.42359 0.41411 -0.60520
H -4.56090 0.97709 1.09069
H -4.18182 -1.62899 0.09521
