23

C -2.09609 1.44045 -1.02620
C -1.40191 0.76837 0.15480
C -1.40348 -0.75993 0.00123
C -0.72230 -1.47420 1.18668
C 0.76508 -1.77891 0.94827
C 1.60150 -0.53902 0.91931
O 1.87103 0.06039 1.99611
O 2.05274 -0.04184 -0.30677
C 2.81829 1.15196 -0.41378
H -1.56787 1.19726 -1.97276
H -2.08458 2.54199 -0.88651
H -3.15195 1.10263 -1.09734
H -1.93360 1.05033 1.08959
H -0.36377 1.15219 0.21622
H -0.91878 -1.04819 -0.95748
H -2.46115 -1.10113 -0.04938
H -0.85118 -0.89771 2.12933
H -1.23575 -2.44867 1.33978
H 1.13255 -2.43407 1.76751
H 0.89095 -2.33990 -0.00303
H 3.05375 1.33935 -1.48141
H 3.76825 1.04658 0.15179
H 2.23827 2.01205 -0.01707
