22

C 2.22256 -0.25834 -1.03908
C 1.31688 0.30637 0.05977
C 1.99922 0.22026 1.42858
C -0.00638 -0.42800 0.08244
O -0.02429 -1.62973 0.31390
C -1.30784 0.29997 -0.17656
C -2.22328 0.21000 1.04840
C -1.99995 -0.26867 -1.41925
H 3.17164 0.31731 -1.08511
H 2.46163 -1.32629 -0.84514
H 1.71860 -0.17660 -2.02607
H 1.14850 1.38228 -0.16414
H 2.23225 -0.83478 1.68912
H 1.33507 0.64529 2.21155
H 2.94479 0.80342 1.42133
H -1.10738 1.37677 -0.36730
H -2.49398 -0.84626 1.26363
H -3.15517 0.78857 0.87209
H -1.71173 0.63794 1.93720
H -2.26461 -1.33786 -1.27065
H -1.32821 -0.18405 -2.30039
H -2.92833 0.30238 -1.63431
